Pb8 C8 I23 Br N11 H45  (P1) ~ /home/mede
   1.00000000000000     
    12.6905801121077317   -0.1031205315817700   -0.0518378935915118
     0.5053756872984010   12.3982894387564624   -0.2703186013473426
     0.4895711290611943    0.5902203501430306   12.6128213423147191
   Pb   I    Br   C    N    H 
     8    23     1     8    11    45
Direct
 -0.0009993370683328  0.0219272169680845  0.0082350805959925
  0.5025080909367948  0.0169471642660647 -0.0037297290535562
  0.9920092109437019  0.5108575051612196  0.0042404577427633
  0.4963347219469564  0.5241195298761270 -0.0019632271669445
 -0.0074780597342330  0.0220957594455486  0.5050878887393964
  0.4931699042393334  0.0243735286045721  0.5049992710847566
  0.9820106859483744  0.5230045980094772  0.5027498820868904
  0.4808798772755499  0.5202037614470905  0.4920923342539997
  0.2490686396385683  0.0609485530356503  0.0085030573261126
 -0.0140916964032995  0.0674117557610418  0.2554950420934547
  0.7490827089268575 -0.0096863431067526  0.0226955198101490
  0.5216239457797853  0.2702989041610005  0.9616385509044610
  0.5108056088921632  0.0822038478970087  0.2563351513702488
  0.2461084084357795  0.4723997748081856 -0.0086914686209729
  0.0460471112908591  0.7658499363901246  0.0168438727265387
  0.0053418393310151  0.4916175644182192  0.2527494258632191
  0.7413361643287043  0.5717629549439628  0.0102183544149929
  0.4394486751125060  0.7701931537110306  0.0424136309815423
  0.4748108063674686  0.4708268092725176  0.2471169783929394
  0.2445569446603797  0.0013371782987433  0.5052388699912552
  0.0180568119951250  0.2728970687026640  0.5179623746110162
 -0.0160931180470000  0.0010049546748990  0.7589618403251389
  0.7412237947740044  0.0580949106574580  0.5218839411100628
  0.4459070908954000  0.2715248172576691  0.5551163085545849
  0.4900093505588783  0.9798670368152776  0.7577226446845370
  0.2319800688410741  0.5476701832759417  0.5174006552948207
 -0.0317850665914490  0.7753411580073769  0.4781720314516634
 -0.0107388637032236  0.5461437288724226  0.7544597136325824
  0.7330194464970325  0.4625982628097493  0.4791649709904632
  0.5186191009526454  0.7714708487768868  0.4371716679977289
  0.4852939364554529  0.5704018416727202  0.7469385587143035
  0.9777422661558329  0.2695042800850327 -0.0138316675144411
  0.7572101992065715  0.2765016949880874  0.7828507044497099
  0.2290138015467142  0.2687392241462998  0.3022468612811179
  0.2218830185751891  0.7658428647210442  0.2926199293383320
  0.7322685201216830  0.7462222999550664  0.7396705060603903
  0.1926422007350014  0.2589354205150269  0.7435681946381688
  0.2348829307904007  0.7931186972724440  0.7198700466120715
  0.7513362750719793  0.3010950695257513  0.1915099446340495
  0.7846597656980293  0.7678429686956545  0.2663169100492339
  0.6791100237306673  0.2868920635417708  0.7172829646647929
  0.8576554697282790  0.2800566939423939  0.7563831241069583
  0.2887666800683792  0.2624775202930013  0.1990407168584553
  0.2663389356073183  0.8571398102491401  0.2653655328736371
  0.2232536485889304  0.6802348694081785  0.2336923727233401
  0.7135717428436829  0.7861576602629718  0.6445944098885540
  0.7973674423257879  0.7858610693704502  0.8059539039012260
  0.2946223753041895  0.2606622183976398  0.7980429945693513
  0.2245083197544357  0.6958360270652585  0.7903264381570104
  0.7503985795506359  0.2366713264567914  0.2924327143345102
  0.6868283987554489  0.7750863886446840  0.2044851122613219
  0.7357175256797107  0.2638659209936720  0.8668135397350692
  0.9105520327210370  0.2727826284034045  0.8163871472445005
  0.6903436412939479  0.3038363604003100  0.6379063498862535
  0.6035517979170207  0.2823270394857282  0.7471095218115863
  0.8868974750280340  0.2870607905717407  0.6794875833763693
  0.1456915564422570  0.2863557734382567  0.2871785255417396
  0.2843961480300115  0.3348639953164835  0.1555754804825552
  0.3680091078857122  0.2427392566142247  0.2104232900593434
  0.2609475755748555  0.3331295666845984  0.3481786354427709
  0.2381641462189007  0.1911837921911564  0.3451538487638481
  0.2608902460418149  0.2029017121526204  0.1511741879435172
  0.1797565277673306  0.7611337921580776  0.3696171018616584
  0.2595812320789547  0.6796645616451564  0.1602032691162453
  0.3091988219050486  0.8659385635870426  0.1956539953549245
  0.2655666177223497  0.9169816165892499  0.3201125072083326
  0.1798107228403572  0.6150633056828178  0.2571274331316861
  0.6895446897794221  0.6744466165452694  0.7657181607950667
  0.8431860232238817  0.8514908483327185  0.7881557106242095
  0.7461504879139700  0.8558696040339276  0.6147753964172973
  0.6579461929465269  0.7531268601463382  0.5995568400910679
  0.8072886244916840  0.7463556823971019  0.8771315330905134
  0.1935355670645796  0.1883216226942596  0.6933037267592769
  0.3573309112990791  0.2631053069848556  0.7422826828773126
  0.2975119985023209  0.3272467277962158  0.8462269188739028
  0.1838961401718962  0.3326631179653040  0.6945551303059749
  0.1285453777021244  0.2545241397167868  0.8038612130713126
  0.3046461220195349  0.1927390708809452  0.8474488090117104
  0.1597871106240594  0.8394238207168133  0.7220231053560433
  0.1663259590088416  0.6457669735467259  0.7646406188128223
  0.2955546131757630  0.6509712293677112  0.7916344593342134
  0.2540486184742530  0.7666284228575013  0.6392954402044594
  0.2981678538536688  0.8420425762362851  0.7479471392114783
  0.2014141302998144  0.7163282229713429  0.8671947375099558
  0.7547309894639823  0.2457105841639552  0.1253568477919534
  0.8177150531474613  0.1857784239990599  0.2965379615694085
  0.7480447642875652  0.2868538589417094  0.3574559254422885
  0.8211168903419612  0.3508726503475783  0.1886332724471176
  0.6792630825426209  0.3521825846521057  0.1897677546026289
  0.6848745973629453  0.1880547117266193  0.2985851500622330
  0.7872270199579730  0.8390451067075843  0.3153949469787792
  0.6864037452837446  0.8445867404431293  0.1557558088837037
  0.6830222310295574  0.7097124749700908  0.1547744929359892
  0.8533808498923715  0.7647427883622554  0.2113172623785346
  0.7832059614941251  0.6947152284501836  0.3168247191633834
  0.6202118218609087  0.7769091957024201  0.2554464536450489
 
  0.00000000E+00  0.00000000E+00  0.00000000E+00
  0.00000000E+00  0.00000000E+00  0.00000000E+00
  0.00000000E+00  0.00000000E+00  0.00000000E+00
  0.00000000E+00  0.00000000E+00  0.00000000E+00
  0.00000000E+00  0.00000000E+00  0.00000000E+00
  0.00000000E+00  0.00000000E+00  0.00000000E+00
  0.00000000E+00  0.00000000E+00  0.00000000E+00
  0.00000000E+00  0.00000000E+00  0.00000000E+00
  0.00000000E+00  0.00000000E+00  0.00000000E+00
  0.00000000E+00  0.00000000E+00  0.00000000E+00
  0.00000000E+00  0.00000000E+00  0.00000000E+00
  0.00000000E+00  0.00000000E+00  0.00000000E+00
  0.00000000E+00  0.00000000E+00  0.00000000E+00
  0.00000000E+00  0.00000000E+00  0.00000000E+00
  0.00000000E+00  0.00000000E+00  0.00000000E+00
  0.00000000E+00  0.00000000E+00  0.00000000E+00
  0.00000000E+00  0.00000000E+00  0.00000000E+00
  0.00000000E+00  0.00000000E+00  0.00000000E+00
  0.00000000E+00  0.00000000E+00  0.00000000E+00
  0.00000000E+00  0.00000000E+00  0.00000000E+00
  0.00000000E+00  0.00000000E+00  0.00000000E+00
  0.00000000E+00  0.00000000E+00  0.00000000E+00
  0.00000000E+00  0.00000000E+00  0.00000000E+00
  0.00000000E+00  0.00000000E+00  0.00000000E+00
  0.00000000E+00  0.00000000E+00  0.00000000E+00
  0.00000000E+00  0.00000000E+00  0.00000000E+00
  0.00000000E+00  0.00000000E+00  0.00000000E+00
  0.00000000E+00  0.00000000E+00  0.00000000E+00
  0.00000000E+00  0.00000000E+00  0.00000000E+00
  0.00000000E+00  0.00000000E+00  0.00000000E+00
  0.00000000E+00  0.00000000E+00  0.00000000E+00
  0.00000000E+00  0.00000000E+00  0.00000000E+00
  0.00000000E+00  0.00000000E+00  0.00000000E+00
  0.00000000E+00  0.00000000E+00  0.00000000E+00
  0.00000000E+00  0.00000000E+00  0.00000000E+00
  0.00000000E+00  0.00000000E+00  0.00000000E+00
  0.00000000E+00  0.00000000E+00  0.00000000E+00
  0.00000000E+00  0.00000000E+00  0.00000000E+00
  0.00000000E+00  0.00000000E+00  0.00000000E+00
  0.00000000E+00  0.00000000E+00  0.00000000E+00
  0.00000000E+00  0.00000000E+00  0.00000000E+00
  0.00000000E+00  0.00000000E+00  0.00000000E+00
  0.00000000E+00  0.00000000E+00  0.00000000E+00
  0.00000000E+00  0.00000000E+00  0.00000000E+00
  0.00000000E+00  0.00000000E+00  0.00000000E+00
  0.00000000E+00  0.00000000E+00  0.00000000E+00
  0.00000000E+00  0.00000000E+00  0.00000000E+00
  0.00000000E+00  0.00000000E+00  0.00000000E+00
  0.00000000E+00  0.00000000E+00  0.00000000E+00
  0.00000000E+00  0.00000000E+00  0.00000000E+00
  0.00000000E+00  0.00000000E+00  0.00000000E+00
  0.00000000E+00  0.00000000E+00  0.00000000E+00
  0.00000000E+00  0.00000000E+00  0.00000000E+00
  0.00000000E+00  0.00000000E+00  0.00000000E+00
  0.00000000E+00  0.00000000E+00  0.00000000E+00
  0.00000000E+00  0.00000000E+00  0.00000000E+00
  0.00000000E+00  0.00000000E+00  0.00000000E+00
  0.00000000E+00  0.00000000E+00  0.00000000E+00
  0.00000000E+00  0.00000000E+00  0.00000000E+00
  0.00000000E+00  0.00000000E+00  0.00000000E+00
  0.00000000E+00  0.00000000E+00  0.00000000E+00
  0.00000000E+00  0.00000000E+00  0.00000000E+00
  0.00000000E+00  0.00000000E+00  0.00000000E+00
  0.00000000E+00  0.00000000E+00  0.00000000E+00
  0.00000000E+00  0.00000000E+00  0.00000000E+00
  0.00000000E+00  0.00000000E+00  0.00000000E+00
  0.00000000E+00  0.00000000E+00  0.00000000E+00
  0.00000000E+00  0.00000000E+00  0.00000000E+00
  0.00000000E+00  0.00000000E+00  0.00000000E+00
  0.00000000E+00  0.00000000E+00  0.00000000E+00
  0.00000000E+00  0.00000000E+00  0.00000000E+00
  0.00000000E+00  0.00000000E+00  0.00000000E+00
  0.00000000E+00  0.00000000E+00  0.00000000E+00
  0.00000000E+00  0.00000000E+00  0.00000000E+00
  0.00000000E+00  0.00000000E+00  0.00000000E+00
  0.00000000E+00  0.00000000E+00  0.00000000E+00
  0.00000000E+00  0.00000000E+00  0.00000000E+00
  0.00000000E+00  0.00000000E+00  0.00000000E+00
  0.00000000E+00  0.00000000E+00  0.00000000E+00
  0.00000000E+00  0.00000000E+00  0.00000000E+00
  0.00000000E+00  0.00000000E+00  0.00000000E+00
  0.00000000E+00  0.00000000E+00  0.00000000E+00
  0.00000000E+00  0.00000000E+00  0.00000000E+00
  0.00000000E+00  0.00000000E+00  0.00000000E+00
  0.00000000E+00  0.00000000E+00  0.00000000E+00
  0.00000000E+00  0.00000000E+00  0.00000000E+00
  0.00000000E+00  0.00000000E+00  0.00000000E+00
  0.00000000E+00  0.00000000E+00  0.00000000E+00
  0.00000000E+00  0.00000000E+00  0.00000000E+00
  0.00000000E+00  0.00000000E+00  0.00000000E+00
  0.00000000E+00  0.00000000E+00  0.00000000E+00
  0.00000000E+00  0.00000000E+00  0.00000000E+00
  0.00000000E+00  0.00000000E+00  0.00000000E+00
  0.00000000E+00  0.00000000E+00  0.00000000E+00
  0.00000000E+00  0.00000000E+00  0.00000000E+00
  0.00000000E+00  0.00000000E+00  0.00000000E+00
